StudentsNr = 10;
InstructorsNr = 98;
DaysNr = 2;
SlotsPerDay = 20;
AvailabilitySlotsLenght = 10;
RoomNr = 1;
ProgrammNr = 1;
DegreeNr = 2;
RolesNr = 2;
CoursesNr = 6;
InstructorsProgramm = [{1}, {1}, {1}, {1}, {1}, {1}, {1}, {1}, {1}, {1}, {1}, {1}, {1}, {1}, {1}, {1}, {1}, {1}, {1}, {1}, {1}, {1}, {1}, {1}, {1}, {1}, {1}, {1}, {1}, {1}, {1}, {1}, {1}, {1}, {1}, {1}, {1}, {1}, {1}, {1}, {1}, {1}, {1}, {1}, {1}, {1}, {1}, {1}, {1}, {1}, {1}, {1}, {1}, {1}, {1}, {1}, {1}, {1}, {1}, {1}, {1}, {1}, {1}, {1}, {1}, {1}, {1}, {1}, {1}, {1}, {1}, {1}, {1}, {1}, {1}, {1}, {1}, {1}, {1}, {1}, {1}, {1}, {1}, {1}, {1}, {1}, {1}, {1}, {1}, {1}, {1}, {1}, {1}, {1}, {1}, {1}, {1}, {1}];
InstructorRolesPerProgramm = [|{6, 10, 12, 15, 16, 17, 23, 24, 26, 28, 30, 33, 35, 37, 38, 40, 41, 44, 45, 46, 51, 52, 57, 62, 64, 68, 69, 71, 73, 74, 75, 80, 84, 87, 88, 90, 91, 93}, {2, 3, 4, 5, 6, 7, 9, 14, 15, 16, 17, 18, 19, 20, 21, 23, 25, 27, 28, 31, 37, 38, 39, 50, 51, 53, 60, 66, 70, 71, 76, 77, 79, 80, 82, 89, 94, 95}|];
InstructorsAvailability = [|1, 1, 1, 1, |0, 1, 1, 1, |0, 1, 1, 1, |0, 1, 1, 1, |1, 1, 0, 1, |1, 1, 1, 1, |1, 1, 1, 0, |1, 1, 1, 1, |1, 1, 1, 1, |0, 1, 0, 0, |1, 1, 0, 1, |1, 1, 1, 1, |1, 1, 1, 1, |0, 0, 0, 1, |1, 0, 0, 1, |1, 1, 0, 1, |0, 1, 1, 1, |0, 1, 1, 1, |0, 1, 1, 1, |1, 1, 1, 1, |1, 1, 1, 1, |0, 1, 0, 0, |0, 1, 1, 1, |0, 0, 0, 0, |0, 0, 1, 1, |0, 1, 1, 1, |1, 1, 1, 1, |0, 0, 0, 1, |1, 1, 1, 1, |0, 0, 0, 1, |1, 0, 1, 1, |1, 1, 1, 1, |0, 0, 1, 1, |0, 0, 1, 1, |1, 0, 0, 1, |0, 0, 0, 0, |0, 1, 1, 1, |1, 0, 1, 1, |1, 1, 0, 1, |0, 1, 1, 1, |1, 1, 1, 1, |0, 0, 0, 0, |0, 0, 0, 1, |0, 1, 1, 1, |0, 1, 0, 1, |1, 1, 0, 1, |1, 1, 1, 1, |1, 1, 1, 0, |0, 0, 1, 1, |0, 0, 0, 0, |0, 1, 1, 1, |0, 0, 1, 1, |0, 1, 0, 1, |0, 0, 1, 0, |0, 1, 1, 1, |0, 0, 1, 1, |1, 1, 1, 1, |1, 1, 1, 0, |0, 0, 1, 1, |1, 1, 1, 1, |1, 1, 1, 1, |0, 0, 1, 1, |1, 1, 1, 1, |1, 1, 1, 1, |0, 1, 1, 0, |1, 0, 0, 1, |0, 0, 1, 0, |1, 0, 1, 1, |0, 1, 1, 1, |1, 1, 1, 1, |0, 1, 1, 1, |1, 1, 1, 1, |1, 1, 1, 1, |1, 1, 1, 1, |1, 1, 1, 1, |1, 1, 1, 1, |0, 0, 1, 1, |0, 1, 1, 1, |1, 1, 1, 1, |1, 1, 1, 1, |1, 1, 1, 1, |0, 0, 1, 1, |0, 1, 0, 0, |0, 0, 0, 1, |0, 1, 0, 1, |1, 1, 1, 1, |0, 1, 1, 1, |1, 1, 1, 1, |1, 1, 0, 0, |0, 1, 1, 1, |0, 0, 0, 1, |0, 0, 0, 0, |1, 1, 1, 1, |1, 1, 0, 1, |1, 0, 0, 1, |0, 1, 1, 0, |0, 1, 1, 1, |1, 1, 1, 1|];
StudentsProgramm = [1, 1, 1, 1, 1, 1, 1, 1, 1, 1];
StudentsDegree = [1, 1, 1, 1, 1, 2, 1, 1, 1, 1];
StudentsSupervisorId = [95, 58, 61, 48, 33, 45, 77, 23, 28, 93];
StudentsCourseIds = [{1, 2, 3, 5, 6}, {1, 2, 3, 4, 6}, {2, 3, 4, 5, 6}, {1, 2, 3, 4, 5}, {1, 2, 3, 4, 6}, {1, 2, 6}, {1, 2, 4, 5, 6}, {2, 3, 4, 5, 6}, {1, 2, 3, 5, 6}, {1, 2, 3, 4, 6}];
StudentsAvailability = [|0, 1, 1, 1, |1, 1, 1, 1, |0, 0, 1, 0, |1, 1, 1, 1, |0, 1, 1, 1, |1, 1, 1, 1, |1, 1, 1, 1, |0, 1, 1, 1, |1, 0, 0, 0, |0, 1, 1, 1|];
TheoryticalMinCard = [0, 0, 0, 0, 0, 0, 0, 0, 0, 0];
CoursesInstructorIds = [{4, 5, 9, 10, 11, 14, 17, 18, 19, 20, 21, 22, 24, 27, 28, 29, 31, 32, 33, 38, 39, 42, 43, 45, 47, 49, 50, 52, 55, 58, 59, 62, 63, 64, 65, 66, 68, 71, 72, 75, 77, 78, 80, 83, 84, 87, 88, 90, 91, 92, 94}, {1, 2, 3, 4, 6, 7, 8, 9, 10, 11, 12, 13, 16, 17, 18, 19, 21, 25, 26, 27, 28, 29, 31, 32, 33, 34, 35, 36, 37, 39, 41, 42, 44, 48, 51, 52, 55, 56, 60, 62, 64, 65, 66, 67, 68, 69, 71, 73, 74, 75, 76, 77, 78, 79, 80, 82, 83, 88, 89, 90, 91, 92, 96, 97}, {1, 4, 5, 6, 7, 11, 12, 15, 17, 18, 22, 23, 26, 27, 29, 32, 33, 36, 37, 38, 39, 40, 41, 42, 43, 47, 49, 52, 54, 55, 56, 57, 58, 59, 60, 61, 62, 63, 65, 67, 70, 71, 73, 74, 75, 76, 77, 78, 80, 82, 84, 85, 86, 88, 92, 93, 94, 98}, {2, 4, 7, 8, 12, 19, 23, 26, 27, 29, 31, 32, 37, 40, 42, 48, 49, 53, 59, 60, 66, 72, 79, 81, 86, 88, 89, 91, 98}, {10, 13, 18, 20, 21, 23, 24, 25, 26, 30, 34, 35, 39, 40, 41, 42, 45, 47, 50, 51, 54, 61, 62, 63, 65, 69, 70, 71, 73, 78, 79, 82, 83, 86, 91, 92, 93, 95, 96}, {2, 3, 6, 9, 10, 11, 14, 16, 17, 19, 20, 21, 22, 24, 25, 29, 31, 32, 33, 35, 37, 39, 40, 41, 42, 43, 44, 48, 49, 50, 53, 55, 56, 59, 60, 61, 62, 65, 66, 67, 68, 69, 70, 71, 73, 74, 75, 76, 79, 81, 82, 83, 86, 87, 91, 92, 93, 94, 95, 96}];
RolesDemands = [34, 24];
RolesContinuity = [];
ExamLen = [1, 1, 1, 1, 1, 1, 1, 1, 1, 1];
LunchTsMinLen = 1;
LunchStarts = [7..15, 29..32];
SupervisorAvailable = 5;
OptimalLunchLenght = [3, 1];
OptimalStartTs = [2, 0];
OptimalFinishTs = [2, 20];
MinimizeRooms = 100;
RolesSoftContinuity = [|1, 2|3, 1|];
SameDegreeInRoom = 10;
Mergeability = 1;
